Solver command line: ['C:\\Users\\Gabriela Escobar\\anaconda3\\envs\\pyomo_env\\Library\\bin\\glpsol.exe', '--write', 'C:\\Users\\GABRIE~1\\AppData\\Local\\Temp\\tmpgojb2nce.glpk.raw', '--wglp', 'C:\\Users\\GABRIE~1\\AppData\\Local\\Temp\\tmp1j9gnplr.glpk.glp', '--cpxlp', 'C:\\Users\\GABRIE~1\\AppData\\Local\\Temp\\tmpz8xitmvr.pyomo.lp']

GLPSOL--GLPK LP/MIP Solver 5.0
Parameter(s) specified in the command line:
 --write C:\Users\GABRIE~1\AppData\Local\Temp\tmpgojb2nce.glpk.raw --wglp
 C:\Users\GABRIE~1\AppData\Local\Temp\tmp1j9gnplr.glpk.glp --cpxlp C:\Users\GABRIE~1\AppData\Local\Temp\tmpz8xitmvr.pyomo.lp
Reading problem data from 'C:\Users\GABRIE~1\AppData\Local\Temp\tmpz8xitmvr.pyomo.lp'...
101 rows, 101 columns, 10001 non-zeros
10512 lines were read
Writing problem data to 'C:\Users\GABRIE~1\AppData\Local\Temp\tmp1j9gnplr.glpk.glp'...
10407 lines were written
GLPK Simplex Optimizer 5.0
101 rows, 101 columns, 10001 non-zeros
Preprocessing...
100 rows, 100 columns, 10000 non-zeros
Scaling...
 A: min|aij| =  6.410e-05  max|aij| =  5.000e+00  ratio =  7.800e+04
GM: min|aij| =  7.262e-03  max|aij| =  1.377e+02  ratio =  1.896e+04
EQ: min|aij| =  5.274e-05  max|aij| =  1.000e+00  ratio =  1.896e+04
Constructing initial basis...
Size of triangular part is 100
*     0: obj =  -0.000000000e+00 inf =   0.000e+00 (100)
*    73: obj =   4.111521964e+02 inf =   0.000e+00 (0)
OPTIMAL LP SOLUTION FOUND
Time used:   0.0 secs
Memory used: 1.7 Mb (1793764 bytes)
Writing basic solution to 'C:\Users\GABRIE~1\AppData\Local\Temp\tmpgojb2nce.glpk.raw'...
211 lines were written

